k = 52;
b = 25;
AtomicConstraints =  [|
1, 19|
	1, 20|
	1, 21|
	1, 22|
	1, 23|
	1, 24|
	1, 25|
	1, 46|
	1, 47|
	1, 44|
	1, 45|
	1, 51|
	1, 52|
	2, 19|
	2, 20|
	2, 21|
	2, 22|
	2, 23|
	2, 24|
	2, 25|
	2, 46|
	2, 47|
	2, 44|
	2, 45|
	2, 51|
	2, 52|
	3, 19|
	3, 20|
	3, 21|
	3, 22|
	3, 43|
	3, 40|
	3, 23|
	3, 24|
	3, 25|
	3, 46|
	3, 47|
	3, 44|
	3, 45|
	3, 51|
	3, 52|
	4, 19|
	4, 20|
	4, 21|
	4, 22|
	4, 43|
	4, 40|
	4, 41|
	4, 23|
	4, 24|
	4, 25|
	4, 46|
	4, 47|
	4, 44|
	4, 45|
	4, 51|
	4, 52|
	5, 19|
	5, 20|
	5, 21|
	5, 22|
	5, 43|
	5, 40|
	5, 41|
	5, 23|
	5, 24|
	5, 25|
	5, 46|
	5, 47|
	5, 44|
	5, 45|
	5, 51|
	5, 52|
	6, 19|
	6, 20|
	6, 21|
	6, 22|
	6, 43|
	6, 40|
	6, 41|
	6, 23|
	6, 24|
	6, 25|
	6, 46|
	6, 47|
	6, 44|
	6, 45|
	6, 51|
	6, 52|
	7, 19|
	7, 20|
	7, 21|
	7, 22|
	7, 43|
	7, 40|
	7, 41|
	7, 23|
	7, 24|
	7, 25|
	7, 46|
	7, 47|
	7, 44|
	7, 45|
	7, 51|
	7, 52|
	8, 19|
	8, 20|
	8, 21|
	8, 22|
	8, 43|
	8, 40|
	8, 41|
	8, 23|
	8, 24|
	8, 25|
	8, 46|
	8, 47|
	8, 44|
	8, 45|
	8, 51|
	8, 52|
	9, 19|
	9, 20|
	9, 21|
	9, 22|
	9, 43|
	9, 40|
	9, 41|
	9, 23|
	9, 24|
	9, 25|
	9, 46|
	9, 47|
	9, 44|
	9, 45|
	9, 51|
	9, 52|
	10, 19|
	10, 20|
	10, 21|
	10, 22|
	10, 43|
	10, 40|
	10, 41|
	10, 23|
	10, 24|
	10, 25|
	10, 46|
	10, 47|
	10, 44|
	10, 45|
	10, 51|
	10, 52|
	11, 19|
	11, 20|
	11, 21|
	11, 22|
	11, 43|
	11, 40|
	11, 41|
	11, 23|
	11, 24|
	11, 25|
	11, 46|
	11, 47|
	11, 44|
	11, 45|
	11, 51|
	11, 52|
	12, 19|
	12, 20|
	12, 21|
	12, 22|
	12, 43|
	12, 40|
	12, 41|
	12, 23|
	12, 24|
	12, 25|
	12, 46|
	12, 44|
	12, 45|
	12, 51|
	12, 52|
	37, 13|
	37, 14|
	37, 15|
	37, 16|
	37, 17|
	37, 27|
	37, 38|
	37, 26|
	37, 39|
	37, 42|
	37, 50|
	37, 48|
	37, 49|
	31, 35|
	31, 13|
	31, 14|
	31, 15|
	31, 16|
	31, 17|
	31, 18|
	31, 27|
	31, 38|
	31, 26|
	31, 39|
	31, 42|
	31, 50|
	31, 48|
	31, 49|
	32, 35|
	32, 36|
	32, 13|
	32, 14|
	32, 15|
	32, 16|
	32, 17|
	32, 18|
	32, 27|
	32, 38|
	32, 26|
	32, 39|
	32, 42|
	32, 50|
	32, 48|
	32, 49|
	33, 37|
	33, 36|
	33, 13|
	33, 14|
	33, 15|
	33, 16|
	33, 17|
	33, 18|
	33, 27|
	33, 38|
	33, 26|
	33, 39|
	33, 42|
	33, 50|
	33, 48|
	33, 49|
	34, 37|
	34, 36|
	34, 13|
	34, 14|
	34, 15|
	34, 16|
	34, 17|
	34, 27|
	34, 38|
	34, 26|
	34, 39|
	34, 42|
	34, 50|
	34, 48|
	34, 49|
	35, 13|
	35, 14|
	35, 15|
	35, 16|
	35, 17|
	35, 18|
	35, 27|
	35, 38|
	35, 26|
	35, 39|
	35, 42|
	35, 50|
	35, 48|
	35, 49|
	36, 13|
	36, 14|
	36, 15|
	36, 16|
	36, 17|
	36, 18|
	36, 27|
	36, 38|
	36, 26|
	36, 39|
	36, 42|
	36, 50|
	36, 48|
	36, 49|
	28, 46|
	28, 47|
	28, 44|
	28, 45|
	28, 51|
	28, 52|
	29, 46|
	29, 47|
	29, 44|
	29, 45|
	29, 51|
	29, 52|
	30, 46|
	30, 47|
	30, 51|
	30, 52|
	13, 15|
	14, 13|
	14, 15|
	14, 16|
	16, 15|
	17, 13|
	17, 15|
	17, 16|
	18, 50|
	18, 48|
	18, 49|
	27, 50|
	27, 48|
	27, 49|
	38, 50|
	38, 48|
	38, 49|
	26, 48|
	26, 49|
	39, 48|
	39, 49|
	42, 48|
	20, 23|
	21, 23|
	21, 24|
	22, 23|
	22, 24|
	22, 25|
	46, 45|
	46, 51|
	46, 52|
	47, 51|
	47, 52|];
DisjunctiveConstraints =  [|1, 24, 1, 49|
	1, 25, 1, 50|
	2, 3, 2, 1|
	2, 25, 2, 50|
	3, 4, 3, 2|
	4, 5, 4, 3|
	4, 43, 4, 18|
	5, 6, 5, 4|
	5, 40, 5, 15|
	6, 7, 6, 5|
	7, 8, 7, 6|
	8, 9, 8, 7|
	9, 10, 9, 8|
	10, 11, 10, 9|
	11, 12, 11, 10|
	37, 27, 2, 37|
	37, 24, 37, 49|
	32, 31, 32, 33|
	33, 32, 33, 34|
	33, 13, 33, 38|
	33, 18, 43, 33|
	33, 25, 33, 50|
	34, 27, 2, 34|
	34, 24, 34, 49|
	36, 13, 36, 38|
	36, 18, 43, 36|
	36, 25, 36, 50|
	28, 45, 28, 20|
	29, 28, 29, 30|
	29, 46, 29, 21|
	30, 47, 30, 22|
	27, 18, 27, 38|
	27, 25, 27, 50|
	38, 27, 38, 26|
	38, 50, 25, 38|
	26, 38, 26, 39|
	26, 24, 26, 49|
	26, 50, 25, 26|
	39, 26, 39, 42|
	39, 49, 24, 39|
	42, 23, 42, 48|
	42, 49, 24, 42|
	20, 21, 20, 19|
	21, 22, 21, 20|
	40, 41, 40, 43|
	24, 25, 24, 23|
	45, 44, 45, 51|
	51, 45, 51, 52|
	49, 50, 49, 48|];
SoftAtomicConstraints =  [|
2, 1|
3, 2|
4, 3|
5, 4|
6, 5|
7, 6|
8, 7|
9, 8|
10, 9|
11, 10|
12, 11|
42, 13|
13, 16|
14, 17|
20, 19|
21, 20|
22, 21|
43, 22|
24, 23|
25, 24|
38, 26|
18, 27|
28, 29|
29, 30|
31, 32|
32, 33|
33, 34|
35, 36|
36, 37|
27, 38|
26, 39|
41, 40|
39, 42|
40, 43|
44, 45|
46, 47|
49, 48|
50, 49|
45, 51|
51, 52|];
DirectSuccessors =  [];
